Version identifier: 12.10.0.0 | 2019-11-26 | 843d4de
CPXPARAM_MIP_Interval                            10
CPXPARAM_MIP_Tolerances_AbsMIPGap                0.98999999999999999
Tried aggregator 2 times.
MIP Presolve eliminated 512 rows and 236 columns.
MIP Presolve added 4 rows and 0 columns.
MIP Presolve modified 54 coefficients.
Aggregator did 11 substitutions.
Reduced MIP has 223 rows, 56 columns, and 560 nonzeros.
Reduced MIP has 41 binaries, 15 generals, 0 SOSs, and 0 indicators.
Presolve time = 0.01 sec. (1.18 ticks)
Probing fixed 0 vars, tightened 9 bounds.
Probing time = 0.00 sec. (0.16 ticks)
Cover probing fixed 0 vars, tightened 4 bounds.
Tried aggregator 1 time.
Detecting symmetries...
MIP Presolve eliminated 106 rows and 0 columns.
MIP Presolve modified 9 coefficients.
Reduced MIP has 117 rows, 56 columns, and 348 nonzeros.
Reduced MIP has 41 binaries, 15 generals, 0 SOSs, and 0 indicators.
Presolve time = 0.00 sec. (0.27 ticks)
Probing fixed 0 vars, tightened 5 bounds.
Probing time = 0.00 sec. (0.09 ticks)
Cover probing fixed 0 vars, tightened 3 bounds.
Clique table members: 97.
MIP emphasis: balance optimality and feasibility.
MIP search method: dynamic search.
Parallel mode: deterministic, using up to 4 threads.
Root relaxation solution time = 0.00 sec. (0.28 ticks)

        Nodes                                         Cuts/
   Node  Left     Objective  IInf  Best Integer    Best Bound    ItCnt     Gap

      0     0       10.0000    30                     10.0000       46         
      0     0       10.0000    30                    Cuts: 14       93         
      0     0       10.0000    30                    Cuts: 68      150         
      0     0       10.0000    30                     Cuts: 6      163         
*     0+    0                            9.0000       10.0000            11.11%
      0     0        cutoff              9.0000        9.0000      163    0.00%
Elapsed time = 0.05 sec. (10.61 ticks, tree = 0.01 MB, solutions = 1)
the number of Nodes = 0
